SCIP Status        : solving was interrupted [time limit reached]
Total Time         :    3600.01
  solving          :    3600.00
  presolving       :       0.40 (included in solving)
  reading          :       0.01
  copying          :       1.01 (32 #copies) (minimal 0.00, maximal 0.06, average 0.03)
Original Problem   :
  Problem name     : bbbenchmark/g05_80.0.cut
  Variables        : 81 (80 binary, 0 integer, 0 implicit integer, 1 continuous)
  Constraints      : 1 initial, 1 maximal
  Objective        : minimize, 1 non-zeros (abs.min = 1, abs.max = 1)
Presolved Problem  :
  Problem name     : t_bbbenchmark/g05_80.0.cut
  Variables        : 1609 (80 binary, 0 integer, 1527 implicit integer, 2 continuous)
  Constraints      : 1531 initial, 5076 maximal
  Objective        : minimize, 1 non-zeros (abs.min = 1, abs.max = 1)
  Nonzeros         : 6301 constraint, 162 clique table
Presolvers         :   ExecTime  SetupTime  Calls  FixedVars   AggrVars   ChgTypes  ChgBounds   AddHoles    DelCons    AddCons   ChgSides   ChgCoefs
  boundshift       :       0.00       0.00      0          0          0          0          0          0          0          0          0          0
  convertinttobin  :       0.00       0.00      0          0          0          0          0          0          0          0          0          0
  domcol           :       0.00       0.00      1          0          0          0          0          0          0          0          0          0
  dualagg          :       0.00       0.00      0          0          0          0          0          0          0          0          0          0
  dualcomp         :       0.00       0.00      1          0          0          0          0          0          0          0          0          0
  dualinfer        :       0.00       0.00      0          0          0          0          0          0          0          0          0          0
  dualsparsify     :       0.00       0.00      1          0          0          0          0          0          0          0          0          0
  gateextraction   :       0.00       0.00      0          0          0          0          0          0          0          0          0          0
  implics          :       0.00       0.00      2          0          0          0          0          0          0          0          0          0
  inttobinary      :       0.00       0.00      0          0          0          0          0          0          0          0          0          0
  qpkktref         :       0.00       0.00      0          0          0          0          0          0          0          0          0          0
  redvub           :       0.00       0.00      0          0          0          0          0          0          0          0          0          0
  sparsify         :       0.00       0.00      1          0          0          0          0          0          0          0          0          0
  stuffing         :       0.00       0.00      0          0          0          0          0          0          0          0          0          0
  trivial          :       0.00       0.00      4          0          0          0          0          0          0          0          0          0
  tworowbnd        :       0.00       0.00      0          0          0          0          0          0          0          0          0          0
  dualfix          :       0.00       0.00      4          0          0          0          0          0          0          0          0          0
  genvbounds       :       0.00       0.00      0          0          0          0          0          0          0          0          0          0
  probing          :       0.24       0.00      1          0          0          0          0          0          0          0          0          0
  pseudoobj        :       0.00       0.00      1          0          0          0          1          0          0          0          0          0
  symmetry         :       0.00       0.00      0          0          0          0          0          0          0          0          0          0
  vbounds          :       0.00       0.00      1          0          0          0          0          0          0          0          0          0
  varbound         :       0.00       0.00      2          0          0          0          0          0          0          0          0          0
  and              :       0.00       0.01      2          0          0          0          0          0          0          0          0          0
  linear           :       0.00       0.00      2          0          0          0          0          0          0          0          0          0
  logicor          :       0.00       0.00      0          0          0          0          0          0          0          0          0          0
  bounddisjunction :       0.00       0.00      0          0          0          0          0          0          0          0          0          0
  nonlinear        :       0.14       0.01      5          0          0          0          1          0          0       1530          0          0
  benders          :       0.00       0.00      0          0          0          0          0          0          0          0          0          0
  components       :       0.00       0.00      1          0          0          0          0          0          0          0          0          0
  root node        :          -          -      -          0          -          -         27          -          -          -          -          -
Constraints        :     Number  MaxNumber  #Separate #Propagate    #EnfoLP    #EnfoRelax  #EnfoPS    #Check   #ResProp    Cutoffs    DomReds       Cuts    Applied      Conss   Children
  benderslp        :          0          0          0          0      55700          0          0       2239          0          0          0          0          0          0          0
  integral         :          0          0          0          0      55700          0          0       2239          0          0       2356          0          0       1472     109096
  varbound         :          1          1        109     109377          0          0          0         30          0          0       1085          0          0          0          0
  and              :       1527       1527      63243     396917          2          0          0         30     153445          0    1812972       2058       2008          0          0
  linear           :          3+         9        109     396921          2          0          0         28         36          2       4971          0          0          0          0
  logicor          :          0+      3541          0     106049          0          0          0          0        183        358         38          0          0          0          0
  bounddisjunction :          0+        25          0       9045          0          0          0          0          0          0          0          0          0          0          0
  benders          :          0          0          0          0          2          0          0         31          0          0          0          0          0          0          0
  countsols        :          0          0          0          0          2          0          0         31          0          0          0          0          0          0          0
  components       :          0          0          0          0          0          0          0          0          0          0          0          0          0          0          0
Constraint Timings :  TotalTime  SetupTime   Separate  Propagate     EnfoLP     EnfoPS     EnfoRelax   Check    ResProp    SB-Prop
  benderslp        :       0.06       0.00       0.00       0.00       0.06       0.00       0.00       0.00       0.00       0.00
  integral         :      45.93       0.00       0.00       0.00      45.92       0.00       0.00       0.01       0.00       0.00
  varbound         :       0.06       0.00       0.00       0.06       0.00       0.00       0.00       0.00       0.00       0.00
  and              :      51.04       0.01      32.09      18.40       0.00       0.00       0.00       0.01       0.11       0.42
  linear           :       0.52       0.00       0.04       0.47       0.00       0.00       0.00       0.00       0.00       0.01
  logicor          :       4.18       0.00       0.00       4.17       0.00       0.00       0.00       0.00       0.00       0.01
  bounddisjunction :       0.02       0.00       0.00       0.02       0.00       0.00       0.00       0.00       0.00       0.00
  benders          :       0.00       0.00       0.00       0.00       0.00       0.00       0.00       0.00       0.00       0.00
  countsols        :       0.00       0.00       0.00       0.00       0.00       0.00       0.00       0.00       0.00       0.00
  components       :       0.11       0.00       0.00       0.11       0.00       0.00       0.00       0.00       0.00       0.00
Propagators        : #Propagate   #ResProp    Cutoffs    DomReds
  dualfix          :          4          0          0          0
  genvbounds       :          0          0          0          0
  nlobbt           :          0          0          0          0
  obbt             :          0          0          0          0
  probing          :          0          0          0          0
  pseudoobj        :     256233          0          0         28
  redcost          :     129615          0          0      51209
  rootredcost      :         16          0          0          0
  symmetry         :          0          0          0          0
  vbounds          :      46701          0          0          0
Propagator Timings :  TotalTime  SetupTime   Presolve  Propagate    ResProp    SB-Prop
  dualfix          :       0.00       0.00       0.00       0.00       0.00       0.00
  genvbounds       :       0.33       0.00       0.00       0.33       0.00       0.00
  nlobbt           :       0.00       0.00       0.00       0.00       0.00       0.00
  obbt             :       0.00       0.00       0.00       0.00       0.00       0.00
  probing          :       0.24       0.00       0.24       0.00       0.00       0.00
  pseudoobj        :       0.30       0.00       0.00       0.30       0.00       0.00
  redcost          :       6.28       0.00       0.00       6.27       0.00       0.01
  rootredcost      :       0.36       0.00       0.00       0.36       0.00       0.00
  symmetry         :       0.15       0.00       0.00       0.15       0.00       0.00
  vbounds          :       0.29       0.00       0.00       0.29       0.00       0.00
Conflict Analysis  :       Time      Calls    Success    DomReds  Conflicts   Literals    Reconvs ReconvLits   Dualrays   Nonzeros   LP Iters   (pool size: [10000,10000])
  propagation      :       0.00        358        305          -        322       45.0          0        0.0          -          -          -
  infeasible LP    :       0.00          1          1          -         37      122.2          0        0.0          7       94.4          0
  bound exceed. LP :      10.95       6204       4287          -      50889       68.0          0        0.0          0        0.0      24328
  strong branching :       0.00          0          0          -          0        0.0          0        0.0          -          -          0
  pseudo solution  :       0.00          0          0          -          0        0.0          0        0.0          -          -          -
  applied globally :       0.26          -          -          0      15886       72.9          -          -          7          -          -
  applied locally  :          -          -          -          0          0        0.0          -          -          0          -          -
Separators         :   ExecTime  SetupTime      Calls  RootCalls    Cutoffs    DomReds  FoundCuts ViaPoolAdd  DirectAdd    Applied ViaPoolApp  DirectApp      Conss
  cut pool         :       2.80          -      17837        136          -          -      34460     386061          -          -          -          -          -    (maximal pool size:       2036)
  aggregation      :     236.89       0.00       4247        109          0          0          5         71          0         38         38          0          0
  > cmir           :          -          -          -          -          -          -          -         71          0         38         38          0          -
  > flowcover      :          -          -          -          -          -          -          -          0          0          0          0          0          -
  > knapsackcover  :          -          -          -          -          -          -          -          0          0          0          0          0          -
  cgmip            :       0.00       0.00          0          0          0          0          0          0          0          0          0          0          0
  clique           :       0.00       0.00        109        109          0          0          0          0          0          0          0          0          0
  closecuts        :       0.00       0.00          0          0          0          0          0          0          0          0          0          0          0
  convexproj       :       0.00       0.00          0          0          0          0          0          0          0          0          0          0          0
  disjunctive      :       0.00       0.00          0          0          0          0          0          0          0          0          0          0          0
  eccuts           :       0.00       0.00          0          0          0          0          0          0          0          0          0          0          0
  gauge            :       0.00       0.00          0          0          0          0          0          0          0          0          0          0          0
  gomory           :       0.00       0.00          0          0          0          0          0          0          0          0          0          0          0
  > gomorymi       :          -          -          -          -          -          -          -          0          0          0          0          0          -
  > strongcg       :          -          -          -          -          -          -          -          0          0          0          0          0          -
  impliedbounds    :       0.17       0.00       4247        109          0          0          0          0          0          0          0          0          0
  interlattice     :       0.00       0.00          0          0          0          0          0          0          0          0          0          0          0
  interminor       :       0.00       0.00          0          0          0          0          0          0          0          0          0          0          0
  intersub         :       0.80       0.00         60         60          0          0         60          0         60         60          0         60          0
  intobj           :       0.00       0.00          0          0          0          0          0          0          0          0          0          0          0
  mcf              :       0.00       0.00          1          1          0          0          0          0          0          0          0          0          0
  minor            :       0.02       0.00          0          0          0          0          0          0          0          0          0          0          0
  mixing           :       0.01       0.00       4248        109          0          0          0          0          0          0          0          0          0
  oddcycle         :       0.00       0.00          0          0          0          0          0          0          0          0          0          0          0
  rapidlearning    :       0.00       0.00          0          0          0          0          0          0          0          0          0          0          0
  rlt              :       0.00       0.00         10         10          0          0          0          0          0          0          0          0          0
  zerohalf         :      34.73       0.00       3852         20          0          0      34455     385990          0      82092      82092          0          0
Cutselectors       :   ExecTime  SetupTime      Calls  RootCalls   Selected     Forced   Filtered  RootSelec   RootForc   RootFilt 
  hybrid           :       0.46       0.00       9661        107      84198          0     303981        259          0         44
Pricers            :   ExecTime  SetupTime      Calls       Vars
  problem variables:       0.00          -          0          0
Branching Rules    :   ExecTime  SetupTime   BranchLP  BranchExt   BranchPS    Cutoffs    DomReds       Cuts      Conss   Children
  allfullstrong    :       0.00       0.00          0          0          0          0          0          0          0          0
  cloud            :       0.00       0.00          0          0          0          0          0          0          0          0
  distribution     :       0.00       0.00          0          0          0          0          0          0          0          0
  fullstrong       :       0.00       0.00          0          0          0          0          0          0          0          0
  inference        :       0.00       0.00          0          0          0          0          0          0          0          0
  leastinf         :       0.00       0.00          0          0          0          0          0          0          0          0
  lookahead        :       0.00       0.00          0          0          0          0          0          0          0          0
  mostinf          :       0.00       0.00          0          0          0          0          0          0          0          0
  multaggr         :       0.00       0.00          0          0          0          0          0          0          0          0
  nodereopt        :       0.00       0.00          0          0          0          0          0          0          0          0
  pscost           :       0.00       0.00          0          0          0          0          0          0          0          0
  random           :       0.00       0.00          0          0          0          0          0          0          0          0
  relpscost        :      45.74       0.00      55698          0          0          0       2356          0       1473     109096
  vanillafullstrong:       0.00       0.00          0          0          0          0          0          0          0          0
Primal Heuristics  :   ExecTime  SetupTime      Calls      Found       Best
  LP solutions     :       0.00          -          -          2          2
  relax solutions  :       0.00          -          -          0          0
  pseudo solutions :       0.00          -          -          0          0
  strong branching :       0.01          -          -          1          1
  actconsdiving    :       0.00       0.00          0          0          0
  adaptivediving   :      11.31       0.00        115          1          1
  alns             :       2.29       0.00         19          4          4
  bound            :       0.00       0.00          0          0          0
  clique           :       0.01       0.00          1          0          0
  coefdiving       :       0.00       0.00          0          0          0
  completesol      :       0.00       0.00          0          0          0
  conflictdiving   :      26.22       0.00        325          0          0
  crossover        :       0.41       0.00          5          0          0
  dins             :       0.00       0.00          0          0          0
  distributiondivin:      47.02       0.00        326          1          1
  dps              :       0.00       0.00          0          0          0
  dualval          :       0.00       0.00          0          0          0
  farkasdiving     :       0.01       0.00          0          0          0
  feaspump         :       0.31       0.00          1          1          1
  fixandinfer      :       0.00       0.00          0          0          0
  fracdiving       :      29.85       0.00        326          0          0
  gins             :       0.08       0.00          0          0          0
  guideddiving     :      27.85       0.00        325          5          5
  indicator        :       0.07       0.00          0          0          0
  indicatordiving  :       0.00       0.00          0          0          0
  intdiving        :       0.00       0.00          0          0          0
  intshifting      :       0.26       0.00         42          0          0
  linesearchdiving :      25.66       0.00        325          0          0
  localbranching   :       0.00       0.00          0          0          0
  locks            :       0.01       0.00          1          0          0
  lpface           :       0.07       0.00          0          0          0
  mpec             :     353.98       0.00         11          0          0
  multistart       :       0.00       0.00          0          0          0
  mutation         :       0.00       0.00          0          0          0
  nlpdiving        :       9.01       0.00          9          0          0
  objpscostdiving  :      46.77       0.00         73          3          1
  octane           :       0.00       0.00          0          0          0
  ofins            :       0.03       0.00          0          0          0
  oneopt           :       0.05       0.00         25          0          0
  padm             :       0.00       0.00          0          0          0
  proximity        :       0.00       0.00          0          0          0
  pscostdiving     :      31.40       0.00        326          1          1
  randrounding     :       0.63       0.00       2204          0          0
  rens             :       0.00       0.00          0          0          0
  reoptsols        :       0.00       0.00          0          0          0
  repair           :       0.00       0.00          0          0          0
  rins             :       5.79       0.00          8          0          0
  rootsoldiving    :      35.91       0.00         39          1          0
  rounding         :       0.83       0.00       3494          0          0
  shiftandpropagate:       0.00       0.00          0          0          0
  shifting         :      46.65       0.00      11553          8          8
  simplerounding   :       0.12       0.00          0          0          0
  subnlp           :      93.12       0.00          0          0          0
  trivial          :       0.00       0.00          2          2          2
  trivialnegation  :       0.00       0.00          0          0          0
  trustregion      :       0.00       0.00          0          0          0
  trysol           :       0.10       0.00          0          0          0
  twoopt           :       0.00       0.00          0          0          0
  undercover       :       2.23       0.00          1          0          0
  vbounds          :       0.00       0.00          0          0          0
  veclendiving     :      25.21       0.00        325          0          0
  zeroobj          :       0.00       0.00          0          0          0
  zirounding       :       0.56       0.00       1000          0          0
  other solutions  :          -          -          -          0          -
Diving (single)    :      Calls      Nodes   LP Iters Backtracks  Conflicts   MinDepth   MaxDepth   AvgDepth  RoundSols  NLeafSols  MinSolDpt  MaxSolDpt  AvgSolDpt
  actconsdiving    :          0          -          -          -          -          -          -          -          -          -          -          -          -
  coefdiving       :          0          -          -          -          -          -          -          -          -          -          -          -          -
  conflictdiving   :        325      10463     256952        356       8156         35         67       48.7          0          -          -          -          -
  distributiondivin:        326       7914     339863        384       3588         33         55       40.8          0          1         48         48       48.0
  farkasdiving     :          0          -          -          -          -          -          -          -          -          -          -          -          -
  fracdiving       :        326      27608     276315        282       3398         41        479      101.3          0          -          -          -          -
  guideddiving     :        325      24768     267261        184       3482         40        262       92.8          0          5         81         98       89.2
  indicatordiving  :          0          -          -          -          -          -          -          -          -          -          -          -          -
  linesearchdiving :        325       9428     259313        385       7232         32         70       45.5          0          -          -          -          -
  pscostdiving     :        326       9502     307861        340       6403         36         60       45.8          0          1         60         60       60.0
  veclendiving     :        325      10058     245819        353      10717         37         62       47.6          0          -          -          -          -
Diving (adaptive)  :      Calls      Nodes   LP Iters Backtracks  Conflicts   MinDepth   MaxDepth   AvgDepth  RoundSols  NLeafSols  MinSolDpt  MaxSolDpt  AvgSolDpt
  actconsdiving    :         24        684      22435         13        177         38         48       42.8          0          1         43         43       43.0
  coefdiving       :         33       1065      24207         35       1189         39         65       47.9          0          -          -          -          -
  conflictdiving   :          0          -          -          -          -          -          -          -          -          -          -          -          -
  distributiondivin:          0          -          -          -          -          -          -          -          -          -          -          -          -
  farkasdiving     :          0          -          -          -          -          -          -          -          -          -          -          -          -
  fracdiving       :          9        931       7775         12        106         53        262      119.7          0          -          -          -          -
  guideddiving     :          9        730       7623          3         56         55        171       96.7          0          -          -          -          -
  indicatordiving  :          0          -          -          -          -          -          -          -          -          -          -          -          -
  linesearchdiving :          5        120       5154          6        168         34         50       39.6          0          -          -          -          -
  pscostdiving     :         10        311      11639         11        258         36         56       45.9          0          -          -          -          -
  veclendiving     :         25        818      21010         28        805         37         56       48.3          0          -          -          -          -
Neighborhoods      :      Calls  SetupTime  SolveTime SolveNodes       Sols       Best       Exp3  EpsGreedy        UCB TgtFixRate  Opt  Inf Node Stal  Sol  Usr Othr Actv
  rens             :          1       0.00       0.00          0          0          0    0.00000   -1.00000    0.06923      0.900    0    0    0    0    0    0    1    1
  rins             :          2       0.11       0.04          8          0          0    0.00000   -1.00000    0.53908      0.550    0    2    0    0    0    0    0    1
  mutation         :          2       0.09       0.03          4          0          0    0.00000   -1.00000    0.54467      0.550    0    2    0    0    0    0    0    1
  localbranching   :          2       0.10       0.03         13          0          0    0.00000   -1.00000    0.53320      0.550    0    2    0    0    0    0    0    1
  crossover        :          2       0.07       0.09         57          0          0    0.00000   -1.00000    0.47262      0.550    0    2    0    0    0    0    0    1
  proximity        :          2       0.10       0.11        103          0          0    0.00000   -1.00000    0.41185      0.850    0    1    0    1    0    0    0    1
  zeroobjective    :          2       0.11       0.02          6          0          0    0.00000   -1.00000    0.54210      0.550    0    2    0    0    0    0    0    1
  dins             :          6       0.34       0.93        734          4          4    0.00000   -1.00000    0.54674      0.594    3    1    0    2    0    0    0    1
  trustregion      :          0       0.00       0.00          0          0          0    0.00000   -1.00000    1.00000      0.900    0    0    0    0    0    0    0    0
Expressions        :   #IntEval  IntEvalTi   #RevProp  RevPropTi    DomReds    Cutoffs  #Estimate  EstimTime  Branching  #Simplify SimplifyTi Simplified
  pow              :          0       0.00          0       0.00          0          0          0       0.00          0          0       0.00          0
  prod             :       6320       0.00          0       0.00          0          0          0       0.00          0       4687       0.00          0
  sum              :          8       0.01          2       0.00          0          0          0       0.00          0          3       0.02          2
  var              :       5476       0.00          0       0.00          0          0          0       0.00          0      11145       0.00          0
  varidx           :          0       0.00          0       0.00          0          0          0       0.00          0          0       0.00          0
LP                 :       Time      Calls Iterations  Iter/call   Iter/sec  Time-0-It Calls-0-It    ItLimit
  primal LP        :     118.59       8605          0       0.00       0.00     118.56       8605
  dual LP          :    2175.25     112921    9466909      90.73    4352.10       3.93       8574
  lex dual LP      :       0.00          0          0       0.00          -
  barrier LP       :       0.00          0          0       0.00          -       0.00          0
  resolve instable :       0.00          0          0       0.00          -
  diving/probing LP:     266.18      11224    2484153     221.33    9332.61
  strong branching :      25.68       2136     198027      92.71    7711.33          -          -         34
    (at root node) :          -         19       6619     348.37          -
  conflict analysis:       4.31       2478      24328       9.82    5644.55
NLP relaxation     :
  solve time       :       9.00 (9 calls)
  convexity        :  nonconvex (4 linear rows, 0 convex ineq., 0 nonconvex ineq., 1527 nonlinear eq. or two-sided ineq.)
NLP Solvers        :  #Problems  ProblemTi    #Solves  SolveTime      #Iter  Time/Iter      #Okay #TimeLimit #IterLimit #LObjLimit #Interrupt  #NumError #EvalError  #OutOfMem #LicenseEr #OtherTerm   #GlobOpt    #LocOpt  #Feasible #LocInfeas #GlobInfea #Unbounded   #Unknown
  ipopt            :         12       4.17         42     363.17       2235       0.16         42          0          0          0          0          0          0          0          0          0          0          0          0         33          0          0          9
B&B Tree           :
  number of runs   :          1
  nodes            :      93540 (54548 internal, 38992 leaves)
  feasible leaves  :          2
  infeas. leaves   :          4
  objective leaves :      38986
  nodes (total)    :      93540 (54548 internal, 38992 leaves)
  nodes left       :      15536
  max depth        :         59
  max depth (total):         59
  backtracks       :      20131 (21.5%)
  early backtracks :          0 (0.0%)
  nodes exc. ref.  :          0 (0.0%)
  delayed cutoffs  :          0
  repropagations   :        197 (24 domain reductions, 0 cutoffs)
  avg switch length:       4.53
  switching time   :     136.31
Estim. Tree Size   :     187120
Estimation Tree    : 109097 nodes (93560 visited, 54548 internal, 39012 leaves, 15537 open), weight: 0.0000 completed 0.0938
Estimations        :      estim      value      trend resolution     smooth
  wbe              : 13518513158          -          -          -          -
  tree-profile     :         -1          -          -          -          -
  gap              :     611366    0.77020    0.00006         64     649924
  tree-weight      :     187120    0.00001    0.00000         64     186852
  leaf-frequency   :    1715840    0.41697    0.00001         64    1577136
  ssg              :    2740663    0.85183   -0.00004         64    2786080
  open-nodes       :     187120 15537.00000   12.55460         64     186852
Root Node          :
  First LP value   : -1.00000000000000e+00
  First LP Iters   :       1045 (11611.11 Iter/sec)
  First LP Time    :       0.09
  Final Dual Bound : -9.24215437807658e-01
  Final Root Iters :       5410
  Root LP Estimate : -4.63290469753938e-01
Solution           :
  Solutions found  :         30 (27 improvements)
  First Solution   : +1.00000000000000e+05   (in run 1, after 0 nodes, 0.05 seconds, depth 0, found by <trivial>)
  Gap First Sol.   :   infinite
  Gap Last Sol.    :      36.94 %
  Primal Bound     : -5.79113924050632e-01   (in run 1, after 31277 nodes, 1547.75 seconds, depth 20, found by <alns>)
  Dual Bound       : -7.51898734177217e-01
  Gap              :      29.84 %
Integrals          :      Total       Avg%
  primal-dual      :  100082.86      27.80
  primal-ref       :          -          - (not evaluated)
  dual-ref         :          -          - (not evaluated)
